JulietBench/Juliet_Based_Patch_Bench/FFmpeg/CWE-189-Numeric-Errors/CVE_2013_7014_86736f59d6a527d8bc807d09b93f971c0fe0bb07/Resultadd_bytes_c_Snippet_patch1NEQ.smt2
; benchmark generated from python API
(set-info :status unknown)
(declare-fun R () (_ BitVec 32))
(declare-fun rdi () (_ BitVec 64))
(assert
 (let (($x478 (= (_ bv1 32) R)))
 (let ((?x6 ((_ extract 31 0) rdi)))
 (let ((?x11 (bvsub ?x6 (_ bv8 32))))
 (let ((?x191 ((_ sign_extend 32) ?x11)))
 (let (($x28 (bvsgt (_ bv0 64) ?x191)))
 (let (($x479 (and $x28 $x478)))
 (let (($x471 (= (_ bv50 32) R)))
 (let (($x221 (bvsle (_ bv0 64) ?x191)))
 (let (($x189 (bvsgt (_ bv8 64) ?x191)))
 (let (($x476 (and $x189 $x221 $x471)))
 (let (($x468 (= (_ bv58 32) R)))
 (let (($x41 (bvsle (_ bv8 64) ?x191)))
 (let (($x454 (bvsgt (_ bv16 64) ?x191)))
 (let (($x475 (and $x454 $x41 $x221 $x468)))
 (let (($x452 (= (_ bv66 32) R)))
 (let (($x446 (bvsle (_ bv16 64) ?x191)))
 (let (($x465 (bvsgt (_ bv24 64) ?x191)))
 (let (($x474 (and $x465 $x446 $x41 $x221 $x452)))
 (let (($x480 (or $x474 $x475 $x476 $x479)))
 (let (($x483 (not $x480)))
 (let ((?x7 ((_ sign_extend 32) ?x6)))
 (let ((?x9 (bvadd ?x7 (_ bv18446744073709551608 64))))
 (let (($x37 (bvuge ?x9 (_ bv0 64))))
 (let (($x36 (bvult ?x9 (_ bv8 64))))
 (let (($x472 (and $x36 $x37 $x471)))
 (let (($x105 (bvuge ?x9 (_ bv8 64))))
 (let (($x34 (bvult ?x9 (_ bv16 64))))
 (let (($x469 (and $x34 $x105 $x37 $x468)))
 (let (($x122 (bvuge ?x9 (_ bv16 64))))
 (let (($x219 (bvult ?x9 (_ bv24 64))))
 (let (($x451 (and $x219 $x122 $x105 $x37 $x452)))
 (let (($x473 (or $x451 $x469 $x472)))
 (let (($x482 (not $x473)))
 (let (($x484 (and $x482 $x483)))
 (let (($x481 (and $x473 $x480)))
 (let (($x485 (or $x481 $x484)))
 (not $x485))))))))))))))))))))))))))))))))))))))
(check-sat)
